NAME 
ROWS
 N  OBJ
 L  R0      
 L  R1      
 E  R2      
 E  R3      
 E  R4      
 E  R5      
 E  R6      
 E  R7      
 E  R8      
 E  R9      
 E  R10     
 E  R11     
COLUMNS
    MARKER    'MARKER'                 'INTORG'
    I0(6)     OBJ       -65
    I0(6)     R0        -160
    I0(6)     R1        -190
    I0(6)     R3        10
    I0(6)     R4        19
    I0(6)     R5        8
    I0(6)     R11       1
    I1(7)     OBJ       -73
    I1(7)     R0        -47
    I1(7)     R1        91
    I1(7)     R2        19
    I1(7)     R3        1
    I1(7)     R4        14
    I1(7)     R5        19
    I1(7)     R11       1
    I2(6)     OBJ       171
    I2(6)     R0        -4
    I2(6)     R1        93
    I2(6)     R2        16
    I2(6)     R4        -1
    I2(6)     R5        1
    I2(6)     R11       1
    I3(7)     OBJ       -44
    I3(7)     R0        51
    I3(7)     R1        -120
    I3(7)     R2        19
    I3(7)     R3        12
    I3(7)     R4        8
    I3(7)     R5        19
    I3(7)     R11       1
    MARKER    'MARKER'                 'INTEND'
    C4(10)    OBJ       5
    C4(10)    R0        -7
    C4(10)    R1        -9
    C4(10)    R2        -1
    C4(10)    R3        19
    C4(10)    R5        5
    C4(10)    R6        7
    C4(10)    R7        -1
    C4(10)    R8        18
    C4(10)    R9        11
    C4(10)    R10       2
    C5(10)    OBJ       3
    C5(10)    R0        -5
    C5(10)    R1        5
    C5(10)    R3        3
    C5(10)    R4        -1
    C5(10)    R5        3
    C5(10)    R6        3
    C5(10)    R7        -1
    C5(10)    R8        18
    C5(10)    R9        7
    C5(10)    R10       9
    C6(9)     OBJ       -9
    C6(9)     R0        3
    C6(9)     R1        4
    C6(9)     R2        1
    C6(9)     R3        3
    C6(9)     R4        13
    C6(9)     R5        9
    C6(9)     R6        4
    C6(9)     R7        19
    C6(9)     R8        9
    C7(9)     OBJ       4
    C7(9)     R0        -3
    C7(9)     R1        -8
    C7(9)     R3        17
    C7(9)     R4        14
    C7(9)     R6        1
    C7(9)     R7        19
    C7(9)     R8        13
    C7(9)     R9        10
    C7(9)     R10       2
    C8(9)     OBJ       -7
    C8(9)     R0        -8
    C8(9)     R1        5
    C8(9)     R2        5
    C8(9)     R3        3
    C8(9)     R4        7
    C8(9)     R5        3
    C8(9)     R6        15
    C8(9)     R8        6
    C8(9)     R10       17
    C9(7)     OBJ       -10
    C9(7)     R0        -1
    C9(7)     R1        -8
    C9(7)     R4        12
    C9(7)     R5        9
    C9(7)     R7        5
    C9(7)     R8        19
    C9(7)     R10       2
    C10(1)    R2        1
    C11(1)    R3        1
    C12(1)    R4        1
    C13(1)    R5        1
    C14(1)    R6        1
    C15(1)    R7        1
    C16(1)    R8        1
    C17(1)    R9        1
    C18(1)    R10       1
    C19(1)    R11       1
RHS
    RHS1      R0        -7.1593656236605227e+01
    RHS1      R1        7.9753107586798109e+01
    RHS1      R2        93
    RHS1      R3        69
    RHS1      R4        74
    RHS1      R5        93
    RHS1      R6        97
    RHS1      R7        87
    RHS1      R8        79
    RHS1      R9        85
    RHS1      R10       53
    RHS1      R11       1
BOUNDS
 UP BND1      I0(6)     2
 UP BND1      I1(7)     2
 UP BND1      I2(6)     2
 UP BND1      I3(7)     2
ENDATA
